70
1 0 78
2 0 71
2 1 52
3 0 33
3 1 33
3 2 65
4 0 62
4 1 49
4 2 13
4 3 70
5 0 1
5 1 76
5 2 70
5 3 44
5 4 38
6 0 54
6 1 57
6 2 23
6 3 76
6 4 59
6 5 60
7 0 21
7 1 25
7 2 25
7 3 30
7 4 14
7 5 32
7 6 23
8 0 26
8 1 10
8 2 59
8 3 39
8 4 56
8 5 9
8 6 71
8 7 46
9 0 3
9 1 64
9 2 43
9 3 12
9 4 39
9 5 37
9 6 19
9 7 30
9 8 28
10 0 23
10 1 63
10 2 4
10 3 62
10 4 39
10 5 32
10 6 12
10 7 29
10 8 68
10 9 17
11 0 13
11 1 61
11 2 56
11 3 72
11 4 56
11 5 57
11 6 35
11 7 23
11 8 22
11 9 10
11 10 1
12 0 24
12 1 19
12 2 80
12 3 12
12 4 58
12 5 14
12 6 30
12 7 8
12 8 27
12 9 31
12 10 48
12 11 18
13 0 63
13 1 6
13 2 50
13 3 52
13 4 79
13 5 45
13 6 7
13 7 79
13 8 74
13 9 45
13 10 28
13 11 54
13 12 24
14 0 19
14 1 72
14 2 33
14 3 20
14 4 65
14 5 45
14 6 69
14 7 13
14 8 51
14 9 54
14 10 49
14 11 25
14 12 28
14 13 77
15 0 76
15 1 60
15 2 20
15 3 67
15 4 74
15 5 63
15 6 4
15 7 43
15 8 80
15 9 78
15 10 66
15 11 72
15 12 76
15 13 30
15 14 51
16 0 13
16 1 77
16 2 46
16 3 16
16 4 70
16 5 12
16 6 54
16 7 41
16 8 49
16 9 70
16 10 24
16 11 43
16 12 41
16 13 38
16 14 21
16 15 6
17 0 40
17 1 41
17 2 44
17 3 42
17 4 57
17 5 38
17 6 52
17 7 22
17 8 62
17 9 51
17 10 27
17 11 66
17 12 47
17 13 37
17 14 51
17 15 63
17 16 5
18 0 54
18 1 42
18 2 45
18 3 62
18 4 12
18 5 30
18 6 22
18 7 45
18 8 78
18 9 36
18 10 10
18 11 40
18 12 30
18 13 69
18 14 33
18 15 65
18 16 43
18 17 69
19 0 70
19 1 58
19 2 24
19 3 18
19 4 77
19 5 80
19 6 30
19 7 16
19 8 23
19 9 12
19 10 47
19 11 28
19 12 39
19 13 12
19 14 15
19 15 15
19 16 75
19 17 26
19 18 20
20 0 26
20 1 26
20 2 64
20 3 65
20 4 58
20 5 73
20 6 39
20 7 23
20 8 17
20 9 1
20 10 53
20 11 77
20 12 20
20 13 5
20 14 49
20 15 7
20 16 59
20 17 6
20 18 57
20 19 51
21 0 20
21 1 61
21 2 15
21 3 53
21 4 12
21 5 23
21 6 17
21 7 77
21 8 20
21 9 37
21 10 13
21 11 39
21 12 6
21 13 11
21 14 20
21 15 51
21 16 79
21 17 53
21 18 53
21 19 29
21 20 46
22 0 80
22 1 15
22 2 63
22 3 12
22 4 63
22 5 63
22 6 59
22 7 14
22 8 27
22 9 47
22 10 36
22 11 11
22 12 37
22 13 24
22 14 12
22 15 3
22 16 50
22 17 7
22 18 41
22 19 38
22 20 54
22 21 26
23 0 6
23 1 13
23 2 30
23 3 59
23 4 14
23 5 20
23 6 26
23 7 74
23 8 70
23 9 64
23 10 72
23 11 23
23 12 77
23 13 18
23 14 54
23 15 61
23 16 19
23 17 57
23 18 5
23 19 75
23 20 21
23 21 67
23 22 19
24 0 42
24 1 49
24 2 64
24 3 64
24 4 7
24 5 19
24 6 6
24 7 36
24 8 48
24 9 20
24 10 42
24 11 60
24 12 32
24 13 46
24 14 10
24 15 68
24 16 23
24 17 10
24 18 58
24 19 41
24 20 1
24 21 30
24 22 67
24 23 8
25 0 37
25 1 43
25 2 11
25 3 7
25 4 9
25 5 69
25 6 12
25 7 34
25 8 59
25 9 45
25 10 35
25 11 69
25 12 31
25 13 33
25 14 12
25 15 71
25 16 76
25 17 15
25 18 72
25 19 75
25 20 9
25 21 22
25 22 11
25 23 14
25 24 24
26 0 27
26 1 47
26 2 69
26 3 3
26 4 50
26 5 34
26 6 9
26 7 59
26 8 42
26 9 19
26 10 53
26 11 68
26 12 27
26 13 1
26 14 61
26 15 1
26 16 31
26 17 43
26 18 42
26 19 37
26 20 2
26 21 5
26 22 21
26 23 76
26 24 74
26 25 16
27 0 42
27 1 71
27 2 77
27 3 20
27 4 8
27 5 37
27 6 44
27 7 35
27 8 4
27 9 80
27 10 7
27 11 71
27 12 31
27 13 58
27 14 70
27 15 15
27 16 33
27 17 62
27 18 74
27 19 77
27 20 28
27 21 7
27 22 23
27 23 56
27 24 4
27 25 38
27 26 60
28 0 69
28 1 68
28 2 11
28 3 21
28 4 78
28 5 68
28 6 22
28 7 34
28 8 15
28 9 18
28 10 48
28 11 46
28 12 43
28 13 17
28 14 74
28 15 54
28 16 2
28 17 8
28 18 20
28 19 79
28 20 79
28 21 13
28 22 59
28 23 77
28 24 40
28 25 40
28 26 59
28 27 10
29 0 76
29 1 11
29 2 54
29 3 60
29 4 56
29 5 74
29 6 38
29 7 55
29 8 63
29 9 77
29 10 63
29 11 39
29 12 68
29 13 64
29 14 21
29 15 65
29 16 61
29 17 32
29 18 51
29 19 67
29 20 75
29 21 64
29 22 17
29 23 70
29 24 69
29 25 71
29 26 19
29 27 60
29 28 45
30 0 50
30 1 15
30 2 29
30 3 9
30 4 73
30 5 67
30 6 58
30 7 17
30 8 47
30 9 55
30 10 18
30 11 50
30 12 42
30 13 21
30 14 73
30 15 60
30 16 53
30 17 17
30 18 22
30 19 1
30 20 40
30 21 15
30 22 35
30 23 32
30 24 32
30 25 3
30 26 8
30 27 52
30 28 51
30 29 66
31 0 38
31 1 68
31 2 19
31 3 42
31 4 79
31 5 21
31 6 60
31 7 49
31 8 54
31 9 75
31 10 59
31 11 59
31 12 32
31 13 21
31 14 54
31 15 26
31 16 25
31 17 34
31 18 13
31 19 59
31 20 30
31 21 48
31 22 8
31 23 18
31 24 51
31 25 25
31 26 78
31 27 7
31 28 49
31 29 18
31 30 32
32 0 43
32 1 10
32 2 23
32 3 59
32 4 9
32 5 30
32 6 6
32 7 16
32 8 78
32 9 74
32 10 59
32 11 74
32 12 16
32 13 9
32 14 62
32 15 78
32 16 60
32 17 3
32 18 64
32 19 3
32 20 6
32 21 75
32 22 56
32 23 36
32 24 32
32 25 69
32 26 7
32 27 62
32 28 1
32 29 59
32 30 72
32 31 3
33 0 19
33 1 34
33 2 34
33 3 34
33 4 76
33 5 18
33 6 25
33 7 74
33 8 52
33 9 75
33 10 13
33 11 22
33 12 54
33 13 46
33 14 67
33 15 24
33 16 71
33 17 8
33 18 49
33 19 28
33 20 70
33 21 2
33 22 58
33 23 28
33 24 65
33 25 50
33 26 4
33 27 6
33 28 15
33 29 3
33 30 66
33 31 15
33 32 10
34 0 52
34 1 64
34 2 27
34 3 11
34 4 36
34 5 11
34 6 46
34 7 36
34 8 23
34 9 72
34 10 34
34 11 15
34 12 14
34 13 13
34 14 62
34 15 6
34 16 5
34 17 66
34 18 27
34 19 44
34 20 70
34 21 58
34 22 3
34 23 31
34 24 41
34 25 67
34 26 5
34 27 10
34 28 18
34 29 34
34 30 10
34 31 1
34 32 50
34 33 33
35 0 14
35 1 21
35 2 9
35 3 47
35 4 56
35 5 60
35 6 43
35 7 14
35 8 30
35 9 47
35 10 34
35 11 77
35 12 50
35 13 2
35 14 79
35 15 4
35 16 31
35 17 55
35 18 66
35 19 65
35 20 8
35 21 22
35 22 4
35 23 68
35 24 63
35 25 71
35 26 6
35 27 59
35 28 62
35 29 70
35 30 48
35 31 5
35 32 17
35 33 63
35 34 22
36 0 76
36 1 54
36 2 68
36 3 11
36 4 11
36 5 35
36 6 78
36 7 66
36 8 22
36 9 10
36 10 19
36 11 22
36 12 73
36 13 72
36 14 39
36 15 15
36 16 45
36 17 32
36 18 22
36 19 47
36 20 47
36 21 5
36 22 37
36 23 24
36 24 73
36 25 40
36 26 8
36 27 10
36 28 64
36 29 16
36 30 38
36 31 79
36 32 15
36 33 46
36 34 31
36 35 27
37 0 21
37 1 11
37 2 7
37 3 66
37 4 31
37 5 38
37 6 34
37 7 50
37 8 39
37 9 16
37 10 11
37 11 14
37 12 33
37 13 78
37 14 20
37 15 21
37 16 10
37 17 26
37 18 16
37 19 43
37 20 43
37 21 7
37 22 5
37 23 1
37 24 27
37 25 24
37 26 64
37 27 7
37 28 25
37 29 9
37 30 62
37 31 10
37 32 63
37 33 7
37 34 58
37 35 54
37 36 25
38 0 61
38 1 73
38 2 74
38 3 56
38 4 38
38 5 18
38 6 63
38 7 6
38 8 73
38 9 39
38 10 69
38 11 37
38 12 49
38 13 16
38 14 12
38 15 6
38 16 47
38 17 30
38 18 17
38 19 34
38 20 73
38 21 25
38 22 18
38 23 68
38 24 40
38 25 45
38 26 5
38 27 10
38 28 75
38 29 12
38 30 28
38 31 7
38 32 62
38 33 79
38 34 11
38 35 58
38 36 51
38 37 12
39 0 59
39 1 75
39 2 25
39 3 13
39 4 59
39 5 78
39 6 33
39 7 58
39 8 16
39 9 22
39 10 26
39 11 31
39 12 55
39 13 20
39 14 54
39 15 10
39 16 54
39 17 14
39 18 34
39 19 71
39 20 23
39 21 15
39 22 21
39 23 39
39 24 38
39 25 21
39 26 1
39 27 33
39 28 19
39 29 32
39 30 19
39 31 43
39 32 30
39 33 40
39 34 12
39 35 56
39 36 60
39 37 63
39 38 47
40 0 48
40 1 28
40 2 48
40 3 53
40 4 46
40 5 32
40 6 72
40 7 25
40 8 18
40 9 23
40 10 76
40 11 71
40 12 68
40 13 25
40 14 72
40 15 35
40 16 9
40 17 17
40 18 23
40 19 42
40 20 58
40 21 10
40 22 50
40 23 32
40 24 51
40 25 41
40 26 57
40 27 15
40 28 18
40 29 7
40 30 16
40 31 23
40 32 51
40 33 59
40 34 45
40 35 4
40 36 75
40 37 10
40 38 57
40 39 45
41 0 77
41 1 31
41 2 45
41 3 11
41 4 72
41 5 3
41 6 45
41 7 49
41 8 10
41 9 14
41 10 71
41 11 66
41 12 58
41 13 38
41 14 64
41 15 57
41 16 57
41 17 36
41 18 37
41 19 72
41 20 73
41 21 21
41 22 6
41 23 69
41 24 2
41 25 74
41 26 16
41 27 65
41 28 33
41 29 36
41 30 55
41 31 7
41 32 31
41 33 52
41 34 38
41 35 47
41 36 24
41 37 44
41 38 17
41 39 45
41 40 52
42 0 27
42 1 39
42 2 65
42 3 67
42 4 56
42 5 12
42 6 9
42 7 39
42 8 62
42 9 73
42 10 28
42 11 35
42 12 79
42 13 22
42 14 59
42 15 60
42 16 62
42 17 37
42 18 12
42 19 20
42 20 47
42 21 76
42 22 29
42 23 57
42 24 7
42 25 55
42 26 57
42 27 41
42 28 10
42 29 8
42 30 47
42 31 29
42 32 73
42 33 52
42 34 54
42 35 41
42 36 67
42 37 18
42 38 68
42 39 39
42 40 27
42 41 77
43 0 11
43 1 30
43 2 5
43 3 2
43 4 28
43 5 77
43 6 27
43 7 48
43 8 78
43 9 38
43 10 30
43 11 5
43 12 46
43 13 55
43 14 69
43 15 5
43 16 75
43 17 46
43 18 6
43 19 5
43 20 39
43 21 63
43 22 25
43 23 34
43 24 64
43 25 53
43 26 37
43 27 22
43 28 24
43 29 44
43 30 9
43 31 48
43 32 22
43 33 48
43 34 23
43 35 30
43 36 4
43 37 36
43 38 67
43 39 46
43 40 68
43 41 18
43 42 6
44 0 42
44 1 45
44 2 80
44 3 20
44 4 68
44 5 46
44 6 41
44 7 55
44 8 75
44 9 30
44 10 62
44 11 79
44 12 65
44 13 54
44 14 5
44 15 44
44 16 49
44 17 78
44 18 8
44 19 11
44 20 30
44 21 6
44 22 54
44 23 30
44 24 44
44 25 78
44 26 78
44 27 37
44 28 40
44 29 73
44 30 20
44 31 32
44 32 8
44 33 57
44 34 59
44 35 41
44 36 77
44 37 56
44 38 64
44 39 7
44 40 76
44 41 54
44 42 71
44 43 31
45 0 8
45 1 61
45 2 59
45 3 38
45 4 7
45 5 28
45 6 53
45 7 33
45 8 59
45 9 10
45 10 22
45 11 71
45 12 30
45 13 1
45 14 58
45 15 31
45 16 79
45 17 57
45 18 17
45 19 26
45 20 24
45 21 67
45 22 56
45 23 68
45 24 40
45 25 9
45 26 55
45 27 17
45 28 13
45 29 76
45 30 64
45 31 69
45 32 29
45 33 38
45 34 29
45 35 66
45 36 35
45 37 66
45 38 17
45 39 63
45 40 37
45 41 10
45 42 49
45 43 7
45 44 58
46 0 54
46 1 57
46 2 48
46 3 50
46 4 17
46 5 14
46 6 3
46 7 57
46 8 10
46 9 71
46 10 21
46 11 5
46 12 12
46 13 54
46 14 51
46 15 64
46 16 69
46 17 55
46 18 42
46 19 63
46 20 2
46 21 57
46 22 27
46 23 58
46 24 47
46 25 50
46 26 70
46 27 10
46 28 64
46 29 66
46 30 69
46 31 68
46 32 79
46 33 13
46 34 66
46 35 24
46 36 49
46 37 77
46 38 65
46 39 38
46 40 1
46 41 69
46 42 36
46 43 18
46 44 54
46 45 71
47 0 45
47 1 61
47 2 4
47 3 55
47 4 17
47 5 7
47 6 27
47 7 3
47 8 67
47 9 59
47 10 42
47 11 2
47 12 78
47 13 30
47 14 70
47 15 28
47 16 52
47 17 67
47 18 34
47 19 76
47 20 38
47 21 56
47 22 26
47 23 46
47 24 78
47 25 50
47 26 6
47 27 16
47 28 63
47 29 71
47 30 76
47 31 36
47 32 51
47 33 77
47 34 4
47 35 20
47 36 27
47 37 77
47 38 80
47 39 35
47 40 7
47 41 31
47 42 15
47 43 18
47 44 78
47 45 38
47 46 72
48 0 32
48 1 28
48 2 2
48 3 64
48 4 78
48 5 38
48 6 51
48 7 63
48 8 49
48 9 59
48 10 43
48 11 1
48 12 66
48 13 11
48 14 58
48 15 45
48 16 77
48 17 76
48 18 58
48 19 15
48 20 45
48 21 68
48 22 37
48 23 8
48 24 29
48 25 61
48 26 11
48 27 49
48 28 12
48 29 19
48 30 50
48 31 14
48 32 23
48 33 15
48 34 30
48 35 16
48 36 45
48 37 20
48 38 38
48 39 39
48 40 54
48 41 15
48 42 29
48 43 37
48 44 38
48 45 67
48 46 45
48 47 22
49 0 70
49 1 69
49 2 19
49 3 40
49 4 79
49 5 9
49 6 33
49 7 15
49 8 73
49 9 24
49 10 29
49 11 22
49 12 16
49 13 42
49 14 31
49 15 57
49 16 73
49 17 51
49 18 70
49 19 67
49 20 74
49 21 46
49 22 46
49 23 62
49 24 60
49 25 6
49 26 27
49 27 77
49 28 7
49 29 45
49 30 66
49 31 2
49 32 68
49 33 78
49 34 74
49 35 52
49 36 32
49 37 64
49 38 63
49 39 13
49 40 25
49 41 64
49 42 65
49 43 79
49 44 56
49 45 71
49 46 9
49 47 4
49 48 10
50 0 30
50 1 80
50 2 1
50 3 40
50 4 41
50 5 53
50 6 65
50 7 51
50 8 69
50 9 23
50 10 67
50 11 17
50 12 19
50 13 71
50 14 59
50 15 20
50 16 77
50 17 71
50 18 62
50 19 54
50 20 66
50 21 12
50 22 15
50 23 24
50 24 79
50 25 79
50 26 65
50 27 23
50 28 48
50 29 26
50 30 20
50 31 8
50 32 10
50 33 3
50 34 78
50 35 32
50 36 24
50 37 20
50 38 38
50 39 28
50 40 41
50 41 79
50 42 8
50 43 32
50 44 75
50 45 41
50 46 24
50 47 38
50 48 45
50 49 19
51 0 39
51 1 1
51 2 19
51 3 5
51 4 45
51 5 40
51 6 6
51 7 42
51 8 78
51 9 23
51 10 4
51 11 10
51 12 59
51 13 67
51 14 45
51 15 45
51 16 71
51 17 65
51 18 21
51 19 2
51 20 19
51 21 42
51 22 36
51 23 46
51 24 31
51 25 52
51 26 65
51 27 21
51 28 33
51 29 33
51 30 35
51 31 47
51 32 54
51 33 34
51 34 10
51 35 36
51 36 53
51 37 72
51 38 55
51 39 53
51 40 57
51 41 14
51 42 50
51 43 49
51 44 19
51 45 37
51 46 24
51 47 66
51 48 52
51 49 32
51 50 59
52 0 22
52 1 8
52 2 64
52 3 38
52 4 77
52 5 65
52 6 60
52 7 80
52 8 70
52 9 43
52 10 66
52 11 4
52 12 33
52 13 42
52 14 5
52 15 42
52 16 5
52 17 68
52 18 15
52 19 60
52 20 47
52 21 22
52 22 76
52 23 51
52 24 25
52 25 54
52 26 57
52 27 54
52 28 10
52 29 70
52 30 54
52 31 76
52 32 24
52 33 40
52 34 23
52 35 50
52 36 18
52 37 76
52 38 60
52 39 40
52 40 57
52 41 65
52 42 60
52 43 53
52 44 38
52 45 24
52 46 56
52 47 27
52 48 68
52 49 29
52 50 17
52 51 34
53 0 70
53 1 59
53 2 44
53 3 21
53 4 40
53 5 7
53 6 23
53 7 62
53 8 21
53 9 62
53 10 39
53 11 75
53 12 62
53 13 16
53 14 73
53 15 11
53 16 2
53 17 52
53 18 27
53 19 6
53 20 11
53 21 72
53 22 74
53 23 9
53 24 17
53 25 28
53 26 6
53 27 17
53 28 27
53 29 17
53 30 26
53 31 78
53 32 71
53 33 80
53 34 19
53 35 31
53 36 57
53 37 42
53 38 24
53 39 21
53 40 75
53 41 4
53 42 28
53 43 35
53 44 18
53 45 17
53 46 67
53 47 24
53 48 2
53 49 1
53 50 17
53 51 18
53 52 73
54 0 76
54 1 14
54 2 69
54 3 11
54 4 78
54 5 26
54 6 38
54 7 9
54 8 10
54 9 69
54 10 56
54 11 13
54 12 46
54 13 3
54 14 44
54 15 6
54 16 76
54 17 53
54 18 25
54 19 7
54 20 65
54 21 69
54 22 66
54 23 30
54 24 54
54 25 71
54 26 32
54 27 22
54 28 22
54 29 45
54 30 1
54 31 52
54 32 37
54 33 66
54 34 63
54 35 23
54 36 27
54 37 32
54 38 80
54 39 13
54 40 32
54 41 40
54 42 69
54 43 69
54 44 51
54 45 11
54 46 66
54 47 61
54 48 12
54 49 37
54 50 39
54 51 34
54 52 39
54 53 14
55 0 1
55 1 47
55 2 64
55 3 75
55 4 50
55 5 49
55 6 57
55 7 34
55 8 1
55 9 13
55 10 20
55 11 9
55 12 12
55 13 46
55 14 29
55 15 37
55 16 15
55 17 24
55 18 68
55 19 54
55 20 42
55 21 11
55 22 64
55 23 22
55 24 61
55 25 27
55 26 52
55 27 34
55 28 58
55 29 56
55 30 58
55 31 24
55 32 24
55 33 18
55 34 59
55 35 28
55 36 75
55 37 9
55 38 42
55 39 7
55 40 17
55 41 72
55 42 22
55 43 49
55 44 38
55 45 20
55 46 50
55 47 21
55 48 64
55 49 46
55 50 58
55 51 78
55 52 42
55 53 44
55 54 8
56 0 13
56 1 22
56 2 19
56 3 50
56 4 24
56 5 11
56 6 17
56 7 24
56 8 49
56 9 31
56 10 9
56 11 41
56 12 26
56 13 1
56 14 35
56 15 65
56 16 41
56 17 73
56 18 30
56 19 50
56 20 46
56 21 38
56 22 21
56 23 26
56 24 49
56 25 69
56 26 55
56 27 45
56 28 47
56 29 29
56 30 39
56 31 70
56 32 69
56 33 42
56 34 11
56 35 60
56 36 19
56 37 80
56 38 15
56 39 2
56 40 14
56 41 13
56 42 75
56 43 74
56 44 28
56 45 10
56 46 22
56 47 31
56 48 61
56 49 52
56 50 41
56 51 28
56 52 32
56 53 76
56 54 53
56 55 9
57 0 57
57 1 52
57 2 30
57 3 11
57 4 54
57 5 6
57 6 43
57 7 54
57 8 19
57 9 70
57 10 27
57 11 17
57 12 20
57 13 48
57 14 12
57 15 50
57 16 17
57 17 57
57 18 48
57 19 37
57 20 47
57 21 6
57 22 60
57 23 60
57 24 29
57 25 4
57 26 9
57 27 35
57 28 4
57 29 55
57 30 7
57 31 3
57 32 50
57 33 41
57 34 66
57 35 27
57 36 60
57 37 16
57 38 76
57 39 13
57 40 27
57 41 59
57 42 17
57 43 41
57 44 43
57 45 16
57 46 29
57 47 57
57 48 38
57 49 11
57 50 54
57 51 12
57 52 26
57 53 7
57 54 64
57 55 77
57 56 56
58 0 66
58 1 18
58 2 53
58 3 30
58 4 29
58 5 3
58 6 38
58 7 53
58 8 66
58 9 9
58 10 9
58 11 13
58 12 49
58 13 78
58 14 3
58 15 64
58 16 43
58 17 49
58 18 34
58 19 80
58 20 71
58 21 18
58 22 49
58 23 51
58 24 44
58 25 64
58 26 45
58 27 22
58 28 56
58 29 51
58 30 46
58 31 42
58 32 47
58 33 46
58 34 41
58 35 49
58 36 37
58 37 31
58 38 76
58 39 59
58 40 69
58 41 43
58 42 27
58 43 35
58 44 40
58 45 26
58 46 74
58 47 21
58 48 48
58 49 17
58 50 71
58 51 44
58 52 41
58 53 56
58 54 26
58 55 61
58 56 72
58 57 6
59 0 49
59 1 10
59 2 56
59 3 5
59 4 42
59 5 17
59 6 65
59 7 74
59 8 9
59 9 59
59 10 15
59 11 62
59 12 12
59 13 69
59 14 59
59 15 8
59 16 60
59 17 56
59 18 17
59 19 46
59 20 22
59 21 61
59 22 1
59 23 80
59 24 75
59 25 44
59 26 49
59 27 53
59 28 33
59 29 51
59 30 74
59 31 39
59 32 46
59 33 66
59 34 80
59 35 78
59 36 1
59 37 24
59 38 58
59 39 44
59 40 10
59 41 69
59 42 29
59 43 78
59 44 61
59 45 39
59 46 23
59 47 69
59 48 66
59 49 8
59 50 17
59 51 42
59 52 25
59 53 12
59 54 50
59 55 50
59 56 45
59 57 21
59 58 20
60 0 30
60 1 74
60 2 18
60 3 2
60 4 24
60 5 70
60 6 3
60 7 46
60 8 58
60 9 38
60 10 66
60 11 18
60 12 48
60 13 48
60 14 55
60 15 25
60 16 24
60 17 30
60 18 74
60 19 79
60 20 31
60 21 56
60 22 15
60 23 77
60 24 51
60 25 70
60 26 40
60 27 67
60 28 66
60 29 52
60 30 14
60 31 1
60 32 68
60 33 20
60 34 4
60 35 18
60 36 36
60 37 7
60 38 45
60 39 26
60 40 40
60 41 34
60 42 59
60 43 60
60 44 40
60 45 80
60 46 72
60 47 64
60 48 5
60 49 36
60 50 62
60 51 68
60 52 9
60 53 9
60 54 27
60 55 64
60 56 38
60 57 31
60 58 39
60 59 50
61 0 67
61 1 72
61 2 39
61 3 66
61 4 22
61 5 7
61 6 50
61 7 2
61 8 80
61 9 65
61 10 58
61 11 3
61 12 63
61 13 31
61 14 25
61 15 18
61 16 32
61 17 78
61 18 43
61 19 75
61 20 73
61 21 11
61 22 24
61 23 28
61 24 64
61 25 18
61 26 14
61 27 72
61 28 2
61 29 56
61 30 68
61 31 27
61 32 63
61 33 56
61 34 35
61 35 75
61 36 31
61 37 25
61 38 66
61 39 27
61 40 39
61 41 44
61 42 62
61 43 21
61 44 58
61 45 64
61 46 45
61 47 77
61 48 41
61 49 27
61 50 33
61 51 6
61 52 25
61 53 20
61 54 69
61 55 23
61 56 70
61 57 49
61 58 75
61 59 13
61 60 15
62 0 6
62 1 59
62 2 57
62 3 9
62 4 1
62 5 63
62 6 62
62 7 76
62 8 72
62 9 27
62 10 28
62 11 28
62 12 51
62 13 24
62 14 16
62 15 45
62 16 75
62 17 52
62 18 43
62 19 46
62 20 80
62 21 45
62 22 55
62 23 71
62 24 14
62 25 24
62 26 62
62 27 72
62 28 12
62 29 72
62 30 8
62 31 12
62 32 2
62 33 12
62 34 53
62 35 77
62 36 30
62 37 14
62 38 69
62 39 5
62 40 67
62 41 2
62 42 41
62 43 29
62 44 15
62 45 50
62 46 51
62 47 1
62 48 63
62 49 22
62 50 60
62 51 21
62 52 65
62 53 47
62 54 26
62 55 69
62 56 56
62 57 29
62 58 2
62 59 76
62 60 68
62 61 65
63 0 60
63 1 61
63 2 19
63 3 26
63 4 24
63 5 48
63 6 55
63 7 44
63 8 59
63 9 52
63 10 80
63 11 28
63 12 29
63 13 80
63 14 74
63 15 19
63 16 69
63 17 55
63 18 79
63 19 5
63 20 35
63 21 43
63 22 38
63 23 10
63 24 39
63 25 35
63 26 2
63 27 6
63 28 31
63 29 1
63 30 71
63 31 20
63 32 47
63 33 1
63 34 41
63 35 14
63 36 60
63 37 64
63 38 18
63 39 43
63 40 69
63 41 67
63 42 7
63 43 62
63 44 37
63 45 70
63 46 10
63 47 15
63 48 43
63 49 41
63 50 56
63 51 3
63 52 41
63 53 9
63 54 40
63 55 14
63 56 45
63 57 20
63 58 47
63 59 17
63 60 13
63 61 34
63 62 31
64 0 5
64 1 36
64 2 28
64 3 49
64 4 53
64 5 9
64 6 25
64 7 35
64 8 72
64 9 39
64 10 27
64 11 41
64 12 17
64 13 27
64 14 11
64 15 42
64 16 38
64 17 49
64 18 9
64 19 42
64 20 78
64 21 60
64 22 64
64 23 6
64 24 47
64 25 55
64 26 57
64 27 80
64 28 50
64 29 41
64 30 18
64 31 35
64 32 61
64 33 33
64 34 13
64 35 18
64 36 18
64 37 28
64 38 13
64 39 77
64 40 74
64 41 50
64 42 71
64 43 25
64 44 27
64 45 27
64 46 68
64 47 21
64 48 38
64 49 21
64 50 17
64 51 37
64 52 64
64 53 60
64 54 80
64 55 79
64 56 34
64 57 54
64 58 38
64 59 77
64 60 57
64 61 35
64 62 50
64 63 72
65 0 76
65 1 55
65 2 12
65 3 65
65 4 12
65 5 14
65 6 13
65 7 37
65 8 63
65 9 71
65 10 51
65 11 7
65 12 8
65 13 42
65 14 35
65 15 55
65 16 26
65 17 59
65 18 7
65 19 56
65 20 3
65 21 67
65 22 2
65 23 40
65 24 31
65 25 76
65 26 64
65 27 12
65 28 63
65 29 50
65 30 30
65 31 30
65 32 53
65 33 46
65 34 59
65 35 48
65 36 2
65 37 79
65 38 20
65 39 44
65 40 4
65 41 36
65 42 46
65 43 67
65 44 4
65 45 53
65 46 6
65 47 29
65 48 30
65 49 28
65 50 74
65 51 52
65 52 15
65 53 78
65 54 44
65 55 24
65 56 14
65 57 32
65 58 79
65 59 12
65 60 41
65 61 27
65 62 13
65 63 9
65 64 70
66 0 26
66 1 37
66 2 31
66 3 10
66 4 62
66 5 74
66 6 56
66 7 76
66 8 74
66 9 72
66 10 73
66 11 62
66 12 5
66 13 6
66 14 75
66 15 42
66 16 23
66 17 17
66 18 62
66 19 11
66 20 51
66 21 80
66 22 29
66 23 76
66 24 26
66 25 60
66 26 27
66 27 22
66 28 30
66 29 4
66 30 71
66 31 65
66 32 7
66 33 33
66 34 41
66 35 64
66 36 2
66 37 53
66 38 11
66 39 72
66 40 22
66 41 37
66 42 76
66 43 27
66 44 37
66 45 28
66 46 2
66 47 57
66 48 48
66 49 19
66 50 42
66 51 46
66 52 62
66 53 77
66 54 73
66 55 59
66 56 27
66 57 53
66 58 62
66 59 49
66 60 76
66 61 68
66 62 71
66 63 33
66 64 61
66 65 51
67 0 60
67 1 73
67 2 46
67 3 22
67 4 61
67 5 70
67 6 57
67 7 11
67 8 56
67 9 49
67 10 80
67 11 60
67 12 13
67 13 18
67 14 3
67 15 31
67 16 16
67 17 31
67 18 51
67 19 50
67 20 21
67 21 63
67 22 20
67 23 43
67 24 12
67 25 50
67 26 48
67 27 46
67 28 55
67 29 58
67 30 77
67 31 38
67 32 16
67 33 19
67 34 48
67 35 30
67 36 5
67 37 62
67 38 51
67 39 22
67 40 80
67 41 60
67 42 9
67 43 41
67 44 54
67 45 17
67 46 2
67 47 49
67 48 75
67 49 5
67 50 61
67 51 9
67 52 62
67 53 1
67 54 78
67 55 66
67 56 55
67 57 28
67 58 8
67 59 64
67 60 9
67 61 25
67 62 69
67 63 7
67 64 17
67 65 67
67 66 38
68 0 60
68 1 80
68 2 69
68 3 38
68 4 6
68 5 52
68 6 46
68 7 30
68 8 51
68 9 47
68 10 79
68 11 41
68 12 66
68 13 43
68 14 8
68 15 67
68 16 76
68 17 59
68 18 32
68 19 38
68 20 6
68 21 79
68 22 18
68 23 27
68 24 7
68 25 11
68 26 50
68 27 13
68 28 59
68 29 24
68 30 40
68 31 54
68 32 61
68 33 74
68 34 17
68 35 53
68 36 78
68 37 27
68 38 75
68 39 38
68 40 29
68 41 44
68 42 41
68 43 73
68 44 23
68 45 33
68 46 36
68 47 50
68 48 38
68 49 23
68 50 33
68 51 50
68 52 20
68 53 2
68 54 35
68 55 20
68 56 30
68 57 64
68 58 37
68 59 78
68 60 24
68 61 80
68 62 12
68 63 56
68 64 62
68 65 37
68 66 1
68 67 42
69 0 9
69 1 41
69 2 17
69 3 7
69 4 36
69 5 60
69 6 61
69 7 79
69 8 4
69 9 40
69 10 67
69 11 68
69 12 13
69 13 24
69 14 30
69 15 12
69 16 18
69 17 80
69 18 27
69 19 59
69 20 33
69 21 10
69 22 28
69 23 55
69 24 48
69 25 68
69 26 19
69 27 79
69 28 44
69 29 38
69 30 5
69 31 12
69 32 55
69 33 27
69 34 50
69 35 65
69 36 58
69 37 61
69 38 13
69 39 61
69 40 27
69 41 10
69 42 22
69 43 9
69 44 12
69 45 25
69 46 71
69 47 40
69 48 12
69 49 18
69 50 72
69 51 45
69 52 12
69 53 2
69 54 74
69 55 75
69 56 67
69 57 18
69 58 10
69 59 63
69 60 52
69 61 72
69 62 13
69 63 26
69 64 29
69 65 44
69 66 56
69 67 1
69 68 31
